&BANDS 
  prefix='test_PBE',
  outdir='./tmp',
  filband = 'bands-down.dat'
  spin_component = 2,
/
