&control                                                                                                                        
     calculation='bands',
     restart_mode='from_scratch',
     prefix='test_PBE',
     pseudo_dir = './',
     outdir='./tmp',
     tprnfor = .true.,
     tstress = .true.,
     nstep=200,
 /
  &system
     ibrav = 0,
     celldm(1) = 24.27920125,
     nat= 24, ntyp= 2,
     ecutwfc =100, ecutrho =500,
     vdw_corr='grimme-d3',
     occupations= 'smearing',
     smearing= 'gaussian',
     degauss= 0.01
     nbnd = 130,
     nspin = 2,
     starting_magnetization(1)=0.3,
     starting_magnetization(2)=0.1,
  /
  &electrons
     conv_thr = 1.0d-8
     mixing_beta = 0.4
  /
 ATOMIC_SPECIES
 W  183.84  W.pbe-spn-kjpaw_psl.1.0.0.UPF 
 S  32.065  S.pbe-n-kjpaw_psl.1.0.0.UPF 
ATOMIC_POSITIONS {angstrom}
W             2.5094448694        1.6136968670        1.5844304795
W             2.5094448694        4.8410944018        1.5844304795
W             8.2438595391        1.6136968670        3.7666027390
W             8.2438595391        4.8410944018        3.7666027390
W             8.9863106278       -0.0000000000        1.6188991589
W             8.9863115557        3.2273956344        1.6188987356
W             1.7669937806       -0.0000000000        3.7321340596
W             1.7669928528        3.2273956344        3.7321344829
S             0.7406771943        0.0000000000        1.5411432024
S             0.7406766615        3.2273956344        1.5411428110
S            10.0126272088        0.0000000000        3.8098890070
S            10.0126277417        3.2273956344        3.8098893983
S             7.2175445517        1.6136979616        1.5756121504
S             7.2175445517        4.8410933072        1.5756121504
S             3.5357598514        1.6136979616        3.7754200590
S             3.5357598514        4.8410933072        3.7754200590
S             4.2571089672        0.0000000000        0.9517469591
S             4.2571091942        3.2273956344        0.9517475765
S             6.4961954359        0.0000000000        4.3992852503
S             6.4961952089        3.2273956344        4.3992846329
S            10.7339759298        1.6136971980        0.9862136948
S            10.7339759298        4.8410940707        0.9862136948
S             0.0193284733        1.6136971980        4.3648185146
S             0.0193284733        4.8410940707        4.3648185146
K_POINTS {crystal_b}
11
  0.0000000000   0.0000000000    0.0000000000   20   !G
  0.0000000000	 0.5000000000	 0.0000000000   20   !Z
  0.0000000000	 0.5000000000	 0.5000000000   20   !D
  0.0000000000	 0.0000000000	 0.5000000000   20   !B
  0.0000000000   0.0000000000    0.0000000000   20   !G
 -0.5000000000	 0.0000000000	 0.5000000000   20   !A
  -0.5000000000	 0.5000000000	 0.5000000000   20   !E
  0.0000000000   0.5000000000    0.0000000000   20   !Z
  -0.5000000000	 0.5000000000	 0.0000000000   20   !C2
  -0.5000000000	 0.0000000000	 0.0000000000   20   !Y2
  0.0000000000   0.0000000000    0.0000000000    0   !G
CELL_PARAMETERS {alat}
   1.008230765   0.000000000   0.005365507
   0.000000000   0.502396581   0.000000000
  -0.171267438   0.000000000   0.411122093
