&BANDS 
  prefix='test_PBE',
  outdir='./tmp',
  filband = 'bands.dat'
/
